#######################################
### Exact MIP solver for the HHCRSP ###
#######################################
-- Instance file: new-instances/HHCRSP_400_80_63_1.0_R_R.txt
-- Max threads: 4
-- Time limit: 999999 seconds
-- Use initial solution: No
Trivial flow violations prevented generating 2797763 variables.
Version identifier: 20.1.0.0 | 2020-11-10 | 9bedb6d68
CPXPARAM_Threads                                 4
CPXPARAM_Emphasis_Memory                         1
CPXPARAM_TimeLimit                               999999
Tried aggregator 1 time.
Presolve has eliminated 82494 rows and 18167 columns...
LP Presolve eliminated 82494 rows and 18167 columns.
Reduced LP has 2928188 rows, 2775126 columns, and 82805301 nonzeros.
Presolve time = 86.66 sec. (17555.06 ticks)
Compression time = 20.77 sec. (5.54 ticks)
Compression reduced 1196.99 MB A matrix to 361.08 MB
Symmetry aggregator did 4967647 additional substitutions.
Elapsed time = 108.88 sec. (18332.47 ticks, 1 iterations)

Iteration log . . .
Iteration:     1   Dual objective     =             0.000000
Iteration:  1818   Dual objective     =           497.333333

Dual crossover.
  Dual:  Fixing 3185 variables.
     3184 DMoves:  Infeasibility  4.09294820e-12  Objective  4.97333333e+02
        0 DMoves:  Infeasibility  2.06892836e-12  Objective  4.97333333e+02
  Dual:  Pushed 109, exchanged 3076.
  Primal:  Fixing 2271 variables.
     2270 PMoves:  Infeasibility  5.34294831e-16  Objective  4.97333333e+02
        0 PMoves:  Infeasibility  1.07552856e-15  Objective  4.97333333e+02
  Primal:  Pushed 2073, exchanged 198.

Solution status from MIP model:
-- Processing time: 150.099 sec.
-- Memory used: 1889.56 MB
-- Best bound: inf
-- Obj value: 497.333
-- Gap: inf%
-- Total distance: 1492
-- Total tardiness: 0
-- Largest tardiness: 0
